
Log started (V22.2.0.0) Tue Jun  9 08:33:05 2026

New value for time limit in seconds: 120
New value for default parallel thread count: 4
New value for mixed integer optimality gap tolerance: 0.001
New value for level of mixed integer node display: 2

Problem 'results/InstanceA12_bigm_finsteps123.lp' read.
Read time = 0.01 sec. (1.38 ticks)
Version identifier: 22.2.0.0 | 2026-05-04 | 5dff98e58
CPXPARAM_Threads                                 4
CPXPARAM_TimeLimit                               120
CPXPARAM_MIP_Tolerances_MIPGap                   0.001
Tried aggregator 2 times.
MIP Presolve eliminated 39 rows and 39 columns.
MIP Presolve modified 145929 coefficients.
Aggregator did 608 substitutions.
Reduced MIP has 13439 rows, 7074 columns, and 39664 nonzeros.
Reduced MIP has 6466 binaries, 0 generals, 0 SOSs, and 0 indicators.
Presolve time = 0.04 sec. (64.97 ticks)
Found incumbent of value 84.000000 after 0.06 sec. (95.50 ticks)
Probing time = 0.01 sec. (6.23 ticks)
Tried aggregator 1 time.
Detecting symmetries...
MIP Presolve modified 35 coefficients.
Reduced MIP has 13439 rows, 7074 columns, and 39664 nonzeros.
Reduced MIP has 6466 binaries, 0 generals, 0 SOSs, and 0 indicators.
Presolve time = 0.01 sec. (21.74 ticks)
Probing time = 0.00 sec. (5.87 ticks)
Clique table members: 2020.
MIP emphasis: balance optimality and feasibility.
MIP search method: dynamic search.
Parallel mode: deterministic, using up to 4 threads.
Root relaxation solution time = 0.10 sec. (805.80 ticks)

        Nodes                                         Cuts/
   Node  Left     Objective  IInf  Best Integer    Best Bound    ItCnt     Gap

*     0+    0                           84.0000       11.0000            86.90%
*     0+    0                           81.0000       11.0000            86.42%
      0     0       11.0000    18       81.0000       11.0000     6014   86.42%
*     0+    0                           34.0000       11.0000            67.65%
      0     0       11.0910    28       34.0000      Cuts: 97     6304   67.38%
      0     0       18.0063    22       34.0000     Cuts: 315     6403   47.04%
*     0+    0                           32.0000       18.0063            43.73%
      0     0       19.0062    24       32.0000     Cuts: 113     6453   40.61%
*     0+    0                           28.0000       19.0062            32.12%
      0     0       19.0126    46       28.0000     Cuts: 191     6541   32.10%
      0     0       19.0240    74       28.0000     Cuts: 112     6631   32.06%
Detecting symmetries...
      0     0       19.0281    95       28.0000     Cuts: 276     6675   32.04%
      0     0       19.0324   150       28.0000     Cuts: 130     6849   32.03%
*     0+    0                           27.0000       19.0324            29.51%
*     0+    0                           25.0000       19.0324            23.87%
      0     0       19.0342   110       25.0000      Cuts: 60     6961   23.86%
      0     0       19.0429   143       25.0000     Cuts: 247     7008   23.83%
      0     0       19.0429   145       25.0000       Cuts: 8     7015   23.82%
      0     0       19.0429   145       25.0000    MIRcuts: 1     7016   23.82%
Detecting symmetries...
      0     2       19.0429   145       25.0000       19.0538     7016   23.78%
Elapsed time = 0.83 sec. (2045.59 ticks, tree = 0.02 MB, solutions = 7)
*    20+    3                           24.0000       19.0538            20.61%
     58    24       22.0125   126       24.0000       19.0677     8870   20.55%
    159    51       21.0260    53       24.0000       20.0611    11907   16.41%
    294    61        cutoff             24.0000       20.1217    15180   16.16%

Clique cuts applied:  42
Cover cuts applied:  3
Implied bound cuts applied:  560
Flow cuts applied:  5
Mixed integer rounding cuts applied:  149
Gomory fractional cuts applied:  5

Root node processing (before b&c):
  Real time             =    0.81 sec. (1993.15 ticks)
Parallel b&c, 4 threads:
  Real time             =    0.49 sec. (1004.14 ticks)
  Sync time (average)   =    0.12 sec.
  Wait time (average)   =    0.00 sec.
                          ------------
Total (root+branch&cut) =    1.30 sec. (2997.29 ticks)

Solution pool: 8 solutions saved.

MIP - Integer optimal solution:  Objective =  2.4000000000e+01
Solution time =    1.31 sec.  Iterations = 18401  Nodes = 419
Deterministic time = 2997.31 ticks  (2296.23 ticks/sec)


Incumbent solution written to file 'results/InstanceA12_bigm_finsteps123.sol'.
